200
150
100
100
100
100
99
98
98
97
97
97
97
97
97
96
96
95
94
93
93
92
91
91
91
90
90
90
90
89
89
89
89
88
88
88
88
87
87
86
86
86
85
85
85
85
85
84
84
84
84
83
82
82
82
82
82
81
81
81
81
80
79
79
79
79
78
78
78
78
77
76
76
75
75
74
74
73
71
71
70
70
70
70
69
69
68
68
68
67
67
67
66
65
65
65
65
63
63
62
61
61
61
61
59
59
59
59
59
58
58
58
57
57
57
56
56
56
55
55
55
54
54
54
54
53
53
53
53
53
52
52
51
51
50
50
50
49
48
47
46
45
45
44
43
42
42
42
41
41
41
41
40
40
39
39
38
37
36
36
35
34
34
34
34
34
34
33
33
32
31
31
30
30
29
29
29
29
29
28
28
27
26
25
25
25
24
24
24
23
23
22
22
22
21
21
21
20
20
20
20
20
